
Gurobi 11.0.3 (linux64) logging started Mon Aug 25 16:34:37 2025

Set parameter LogFile to value "/home/yihong/Coding/OR_SUC/SUC_epstheta_results_bigM100000_thread4/case24_ieee_rts_theta0.001_epsilon0.2_gurobi_seed170000_num_gen100_N_WDR50_load_scaling_factor1_proposed_eps_T5quadra_cost_bc1.03.txt"
Set parameter TimeLimit to value 3600
Gurobi Optimizer version 11.0.3 build v11.0.3rc0 (linux64 - "Ubuntu 20.04.6 LTS")

CPU model: AMD EPYC 7532 32-Core Processor, instruction set [SSE2|AVX|AVX2]
Thread count: 64 physical cores, 128 logical processors, using up to 4 threads

Academic license 2399124 - for non-commercial use only - registered to yi___@ed.ac.uk
Optimize a model with 13497 rows, 6251 columns and 483422 nonzeros
Model fingerprint: 0x6c4ae69e
Model has 500 quadratic constraints
Variable types: 5751 continuous, 500 integer (500 binary)
Coefficient statistics:
  Matrix range     [3e-04, 2e+03]
  QMatrix range    [2e-03, 8e-03]
  QLMatrix range   [5e-02, 6e+01]
  Objective range  [1e+00, 1e+00]
  Bounds range     [1e+00, 1e+00]
  RHS range        [5e-02, 9e+03]
Presolve removed 11430 rows and 2808 columns
Presolve time: 0.11s
Presolved: 2067 rows, 3443 columns, 15209 nonzeros
Presolved model has 500 quadratic constraint(s)
Variable types: 2943 continuous, 500 integer (500 binary)

Root relaxation: objective 4.593262e+03, 1579 iterations, 0.03 seconds (0.04 work units)

    Nodes    |    Current Node    |     Objective Bounds      |     Work
 Expl Unexpl |  Obj  Depth IntInf | Incumbent    BestBd   Gap | It/Node Time

     0     0 4593.26237    0    5          - 4593.26237      -     -    0s
     0     0 35119.1408    0  174          - 35119.1408      -     -    0s
     0     0 35123.7416    0  174          - 35123.7416      -     -    0s
     0     0 97501.7512    0  110          - 97501.7512      -     -    0s
     0     0 97511.9415    0  115          - 97511.9415      -     -    0s
     0     0 97575.6669    0   80          - 97575.6669      -     -    0s
     0     0 97575.8075    0   80          - 97575.8075      -     -    0s
     0     0 97575.8075    0   80          - 97575.8075      -     -    0s
     0     2 97575.8312    0   80          - 97575.8312      -     -    0s
H  164   170                    97617.730709 97584.5255  0.03%   3.3    0s
*  164   170              45    97617.730709 97584.5255  0.03%   3.3    0s

Cutting planes:
  Gomory: 47
  Implied bound: 162
  MIR: 23
  Flow cover: 42

Explored 191 nodes (5004 simplex iterations) in 0.98 seconds (0.92 work units)
Thread count was 4 (of 128 available processors)

Solution count 2: 97617.7 97617.7 

Optimal solution found (tolerance 1.00e-03)
Warning: max constraint violation (1.8705e-08) exceeds tolerance
Best objective 9.761773070877e+04, best bound 9.758452548561e+04, gap 0.0340%

Gurobi 11.0.3 (linux64) logging started Mon Aug 25 16:34:38 2025

Set parameter LogFile to value "/home/yihong/Coding/OR_SUC/SUC_epstheta_results_bigM100000_thread4/case24_ieee_rts_theta0.001_epsilon0.2_gurobi_seed170000_num_gen100_N_WDR50_load_scaling_factor1_proposed_eps_T5quadra_cost_bc1.03.txt"
Set parameter TimeLimit to value 3600
Gurobi Optimizer version 11.0.3 build v11.0.3rc0 (linux64 - "Ubuntu 20.04.6 LTS")

CPU model: AMD EPYC 7532 32-Core Processor, instruction set [SSE2|AVX|AVX2]
Thread count: 64 physical cores, 128 logical processors, using up to 4 threads

Academic license 2399124 - for non-commercial use only - registered to yi___@ed.ac.uk
Optimize a model with 13497 rows, 6252 columns and 484921 nonzeros
Model fingerprint: 0xef80255c
Model has 501 quadratic constraints
Variable types: 5752 continuous, 500 integer (500 binary)
Coefficient statistics:
  Matrix range     [3e-04, 2e+03]
  QMatrix range    [2e-03, 5e+01]
  QLMatrix range   [5e-02, 6e+01]
  Objective range  [1e+00, 1e+00]
  Bounds range     [2e-01, 1e+00]
  RHS range        [3e-01, 1e+05]
  QRHS range       [5e-02, 5e-02]
Presolve removed 10683 rows and 2427 columns
Presolve time: 0.11s
Presolved: 3316 rows, 4325 columns, 21180 nonzeros
Presolved model has 500 quadratic constraint(s)
Presolved model has 1 bilinear constraint(s)

Solving non-convex MIQCP

Variable types: 3821 continuous, 504 integer (504 binary)

Root relaxation: objective 1.451290e-05, 4008 iterations, 0.11 seconds (0.16 work units)

    Nodes    |    Current Node    |     Objective Bounds      |     Work
 Expl Unexpl |  Obj  Depth IntInf | Incumbent    BestBd   Gap | It/Node Time

     0     0    0.00001    0    6          -    0.00001      -     -    0s
H    0     0                       0.0035458    0.00001   100%     -    0s
     0     0    0.00001    0    6    0.00355    0.00001   100%     -    0s
     0     0    0.00001    0    6    0.00355    0.00001   100%     -    0s
     0     0    0.00001    0    6    0.00355    0.00001   100%     -    0s
     0     0    0.00001    0    6    0.00355    0.00001   100%     -    0s
     0     0    0.00001    0    6    0.00355    0.00001   100%     -    0s
     0     0    0.00001    0    6    0.00355    0.00001   100%     -    0s
H    0     0                       0.0006495    0.00001  97.7%     -    1s
H    0     0                       0.0004796    0.00001  97.0%     -    1s
     0     2    0.00001    0    6    0.00048    0.00001  96.9%     -    1s
H   88    83                       0.0002550    0.00001  94.2%  89.0    2s
*   88    83              22       0.0002550    0.00001  94.2%  89.0    2s
H  142    96                       0.0002480    0.00001  94.0%  72.1    2s
*  142    96              31       0.0002480    0.00001  94.0%  72.1    2s
H  261   102                       0.0002480    0.00001  94.0%  56.2    3s
H  267   102                       0.0002434    0.00001  93.9%  54.9    3s
*  267   102              56       0.0002434    0.00001  93.9%  55.0    3s
H  284    81                       0.0002432    0.00001  93.9%  53.7    3s
*  284    81              58       0.0002432    0.00001  93.9%  53.8    3s
H  325    42                       0.0002424    0.00003  87.7%  54.9    3s
*  325    42              20       0.0002424    0.00013  46.8%  54.9    3s
H  430     1                       0.0002422    0.00024  0.03%  43.6    3s
*  430     1              21       0.0002422    0.00024  0.03%  43.6    3s

Cutting planes:
  Implied bound: 19
  MIR: 4
  Flow cover: 13
  RLT: 1

Explored 431 nodes (23131 simplex iterations) in 3.91 seconds (5.81 work units)
Thread count was 4 (of 128 available processors)

Solution count 10: 0.000242195 0.000242373 0.000243211 ... 0.00354581

Optimal solution found (tolerance 1.00e-03)
Best objective 2.421952215815e-04, best bound 2.421226645758e-04, gap 0.0300%
